param set_len = 10;
param target_sum = 2570488144;
param values := [1] 105795874 [2] 560368785 [3] 730017720 [4] 531771244 [5] 543005240 [6] 252322854 [7] 130407387 [8] 34333655 [9] 560362220 [10] 631307090 ;
